problems/csplib-prob065/opd-models/noch/O0/minion/model_2-small_bibd_16_16_06-solution000001.solution
language Essence 1.3

letting lambda be 3
letting opd be
        {{1, 2, 3, 4, 5, 6}, {1, 2, 3, 7, 8, 9}, {1, 2, 3, 10, 11, 12}, {1, 2, 3, 13, 14, 15}, {1, 2, 4, 7, 10, 13},
         {1, 2, 4, 8, 11, 14}, {1, 2, 4, 9, 12, 15}, {1, 2, 5, 7, 11, 15}, {1, 2, 5, 8, 10, 16}, {1, 2, 6, 7, 12, 14},
         {1, 2, 6, 9, 11, 13}, {1, 3, 4, 7, 11, 16}, {1, 3, 4, 8, 10, 15}, {1, 3, 5, 7, 10, 14}, {1, 3, 5, 8, 11, 13},
         {1, 3, 5, 9, 12, 16}}
$ Visualisation for opd
$  1  2  3  4  5  6
$  1  2  3  7  8  9
$  1  2  3 10 11 12
$  1  2  3 13 14 15
$  1  2  4  7 10 13
$  1  2  4  8 11 14
$  1  2  4  9 12 15
$  1  2  5  7 11 15
$  1  2  5  8 10 16
$  1  2  6  7 12 14
$  1  2  6  9 11 13
$  1  3  4  7 11 16
$  1  3  4  8 10 15
$  1  3  5  7 10 14
$  1  3  5  8 11 13
$  1  3  5  9 12 16

